************************************************************************
file with basedata            : mm46_.bas
initial value random generator: 886049653
************************************************************************
projects                      :  1
jobs (incl. supersource/sink ):  12
horizon                       :  80
RESOURCES
  - renewable                 :  2   R
  - nonrenewable              :  2   N
  - doubly constrained        :  0   D
************************************************************************
PROJECT INFORMATION:
pronr.  #jobs rel.date duedate tardcost  MPM-Time
    1     10      0       13        5       13
************************************************************************
PRECEDENCE RELATIONS:
jobnr.    #modes  #successors   successors
   1        1          3           2   3   4
   2        3          2           5   7
   3        3          1           6
   4        3          2           5  11
   5        3          2           9  10
   6        3          2           8  10
   7        3          2           9  10
   8        3          1          11
   9        3          1          12
  10        3          1          12
  11        3          1          12
  12        1          0        
************************************************************************
REQUESTS/DURATIONS:
jobnr. mode duration  R 1  R 2  N 1  N 2
------------------------------------------------------------------------
  1      1     0       0    0    0    0
  2      1     2       8    8    9    4
         2     7       6    5    7    3
         3     9       5    4    3    2
  3      1     3       7   10    8    7
         2     6       2    8    7    3
         3     6       4    6    7    5
  4      1     3      10    8    7    7
         2     5       9    6    7    7
         3     9       7    5    5    6
  5      1     4       9    8    9    5
         2     5       9    7    9    4
         3     9       8    5    8    4
  6      1     3       5    9    9    4
         2     6       4    6    5    3
         3     8       3    3    1    3
  7      1     7       5    5    5    5
         2     8       5    4    5    4
         3     9       3    2    5    3
  8      1     6       5    5    9    7
         2    10       4    2    6    4
         3    10       5    1    8    5
  9      1     2       8    9    9    4
         2     6       7    9    9    4
         3     7       7    8    8    2
 10      1     2       9    7    4    2
         2     5       8    6    4    2
         3     9       5    4    4    1
 11      1     1       7    7    4    9
         2     2       7    6    4    6
         3     4       6    5    2    5
 12      1     0       0    0    0    0
************************************************************************
RESOURCEAVAILABILITIES:
  R 1  R 2  N 1  N 2
   17   17   61   44
************************************************************************
MAXIMAL LAGS:
from  to  type  delay
    1   12   ES      0
    1    2   ES      0
    2   12   ES      0
    1    3   ES      0
    3   12   ES      0
    1    4   ES      0
    4   12   ES      0
    1    5   ES      0
    5   12   ES      0
    1    6   ES      0
    6   12   ES      0
    1    7   ES      0
    7   12   ES      0
    1    8   ES      0
    8   12   ES      0
    1    9   ES      0
    9   12   ES      0
    1   10   ES      0
   10   12   ES      0
    1   11   ES      0
   11   12   ES      0
    1   12   ES      0
    2    5   SS      4
    2    5   SE      4
    2    5   ES      6
    2    5   EE      4
    2    7   SS      1
    2    7   SE     -3
    2    7   ES     -2
    2    7   EE      0
    3    6   SS     -2
    3    6   SE     12
    3    6   ES     -7
    3    6   EE     -8
    4    5   SS    -11
    4    5   SE     11
    4    5   ES     11
    4    5   EE     -6
    4   11   SS      1
    4   11   SE      4
    4   11   ES     -4
    4   11   EE      6
    5    9   SS      7
    5    9   SE     -2
    5    9   ES     -9
    5    9   EE     -1
    5   10   SS     -3
    5   10   SE     -7
    5   10   ES     -9
    5   10   EE     -3
    6    8   SS     -4
    6    8   SE      3
    6    8   ES      2
    6    8   EE     -5
    6   10   SS     -7
    6   10   SE     -3
    6   10   ES     -4
    6   10   EE      7
    7    9   SS     12
    7    9   SE     -9
    7    9   ES     -5
    7    9   EE      9
    7   10   SS     -4
    7   10   SE     -8
    7   10   ES     -9
    7   10   EE     -6
    8   11   SS      5
    8   11   SE      4
    8   11   ES     12
    8   11   EE     -7
************************************************************************
